17	4	3
13	11	15	12	21	36	16	
0	0	0	0	0	1	3	7	2	6	5	3	2	3	4
9	0	4	0	10	4	2	1	7	3	7	3	5	7	11
5	0	2	0	9	4	9	7	10	1	4	2	8	17
9	1	10	0	0	10	7	6	5	7	1	3	9	15	17
8	10	1	9	7	4	10	4	3	5	7	3	6	16	17
150	0	0	0	5	2	6	9	8	7	5	1	17
75	9	0	0	10	3	1	7	3	8	9	2	13	14
250	0	0	0	3	9	2	8	6	1	9	2	10	15
250	0	5	2	0	9	1	5	5	5	2	2	12	17
200	0	0	9	0	5	9	2	9	2	6	1	17
75	1	0	2	0	5	3	1	4	1	8	1	14
225	4	0	0	0	8	3	9	5	5	6	1	17
1	0	0	0	4	3	4	7	1	10	8	2	16	17
7	0	2	7	0	9	9	8	4	3	3	1	17
1	5	0	3	9	5	8	1	6	6	2	1	17
4	5	7	8	8	2	10	5	2	3	5	1	17
0	0	0	0	0	10	1	7	8	5	2	0
